p cnf 200 1110
-101 49 0
-101 -48 0
-101 35 0
-101 -42 0
-101 96 0
-101 30 0
-101 -13 0
-101 -34 0
-101 -97 0
-101 -99 0
101 -49 48 -35 42 -96 -30 13 34 97 99 0
-102 3 0
-102 73 0
-102 -8 0
-102 31 0
-102 65 0
-102 -34 0
-102 69 0
-102 -28 0
-102 21 0
-102 74 0
102 -3 -73 8 -31 -65 34 -69 28 -21 -74 0
-103 -46 0
-103 15 0
-103 1 0
-103 -3 0
-103 -14 0
-103 -44 0
-103 -54 0
-103 53 0
-103 2 0
-103 93 0
103 46 -15 -1 3 14 44 54 -53 -2 -93 0
-104 -13 0
-104 72 0
-104 83 0
-104 -56 0
-104 -73 0
-104 34 0
-104 -2 0
-104 -96 0
-104 -19 0
-104 -3 0
104 13 -72 -83 56 73 -34 2 96 19 3 0
-105 -94 0
-105 59 0
-105 -4 0
-105 99 0
-105 -13 0
-105 79 0
-105 -90 0
-105 -22 0
-105 -86 0
-105 36 0
105 94 -59 4 -99 13 -79 90 22 86 -36 0
-106 55 0
-106 28 0
-106 -75 0
-106 -23 0
-106 8 0
-106 -76 0
-106 61 0
-106 -73 0
-106 -26 0
-106 96 0
106 -55 -28 75 23 -8 76 -61 73 26 -96 0
-107 -23 0
-107 36 0
-107 -48 0
-107 87 0
-107 95 0
-107 20 0
-107 -42 0
-107 86 0
-107 -35 0
-107 43 0
107 23 -36 48 -87 -95 -20 42 -86 35 -43 0
-108 -47 0
-108 -99 0
-108 -95 0
-108 -9 0
-108 -8 0
-108 96 0
-108 -85 0
-108 72 0
-108 66 0
-108 73 0
108 47 99 95 9 8 -96 85 -72 -66 -73 0
-109 -44 0
-109 21 0
-109 31 0
-109 9 0
-109 -49 0
-109 -88 0
-109 52 0
-109 -72 0
-109 -76 0
-109 91 0
109 44 -21 -31 -9 49 88 -52 72 76 -91 0
-110 49 0
-110 11 0
-110 -84 0
-110 -60 0
-110 96 0
-110 54 0
-110 94 0
-110 6 0
-110 -77 0
-110 20 0
110 -49 -11 84 60 -96 -54 -94 -6 77 -20 0
101 102 103 104 105 106 107 108 109 110 0
-111 -86 0
-111 -91 0
-111 30 0
-111 6 0
-111 74 0
-111 35 0
-111 -47 0
-111 18 0
-111 46 0
-111 -79 0
111 86 91 -30 -6 -74 -35 47 -18 -46 79 0
-112 94 0
-112 -9 0
-112 54 0
-112 -27 0
-112 -68 0
-112 -72 0
-112 -32 0
-112 21 0
-112 -63 0
-112 14 0
112 -94 9 -54 27 68 72 32 -21 63 -14 0
-113 -79 0
-113 77 0
-113 -76 0
-113 62 0
-113 89 0
-113 52 0
-113 73 0
-113 -59 0
-113 -34 0
-113 -45 0
113 79 -77 76 -62 -89 -52 -73 59 34 45 0
-114 100 0
-114 43 0
-114 82 0
-114 -27 0
-114 57 0
-114 -66 0
-114 -62 0
-114 -44 0
-114 -63 0
-114 73 0
114 -100 -43 -82 27 -57 66 62 44 63 -73 0
-115 -16 0
-115 -32 0
-115 -48 0
-115 43 0
-115 30 0
-115 -90 0
-115 -96 0
-115 89 0
-115 34 0
-115 53 0
115 16 32 48 -43 -30 90 96 -89 -34 -53 0
-116 21 0
-116 -31 0
-116 4 0
-116 -40 0
-116 -5 0
-116 -81 0
-116 37 0
-116 82 0
-116 -54 0
-116 -90 0
116 -21 31 -4 40 5 81 -37 -82 54 90 0
-117 -66 0
-117 -54 0
-117 -96 0
-117 40 0
-117 30 0
-117 76 0
-117 2 0
-117 41 0
-117 51 0
-117 -45 0
117 66 54 96 -40 -30 -76 -2 -41 -51 45 0
-118 -89 0
-118 -43 0
-118 6 0
-118 63 0
-118 59 0
-118 20 0
-118 14 0
-118 -2 0
-118 73 0
-118 -98 0
118 89 43 -6 -63 -59 -20 -14 2 -73 98 0
-119 -84 0
-119 -59 0
-119 -1 0
-119 -88 0
-119 -85 0
-119 -52 0
-119 -28 0
-119 66 0
-119 -14 0
-119 57 0
119 84 59 1 88 85 52 28 -66 14 -57 0
-120 -8 0
-120 -37 0
-120 -50 0
-120 81 0
-120 -95 0
-120 -24 0
-120 -83 0
-120 70 0
-120 34 0
-120 56 0
120 8 37 50 -81 95 24 83 -70 -34 -56 0
111 112 113 114 115 116 117 118 119 120 0
-121 -59 0
-121 -12 0
-121 -77 0
-121 98 0
-121 -54 0
-121 -78 0
-121 -76 0
-121 -84 0
-121 94 0
-121 18 0
121 59 12 77 -98 54 78 76 84 -94 -18 0
-122 -92 0
-122 -34 0
-122 93 0
-122 -16 0
-122 86 0
-122 -55 0
-122 22 0
-122 1 0
-122 -12 0
-122 39 0
122 92 34 -93 16 -86 55 -22 -1 12 -39 0
-123 -21 0
-123 80 0
-123 -35 0
-123 78 0
-123 -5 0
-123 19 0
-123 26 0
-123 -22 0
-123 52 0
-123 94 0
123 21 -80 35 -78 5 -19 -26 22 -52 -94 0
-124 24 0
-124 -44 0
-124 -48 0
-124 -60 0
-124 -42 0
-124 71 0
-124 -69 0
-124 96 0
-124 -62 0
-124 57 0
124 -24 44 48 60 42 -71 69 -96 62 -57 0
-125 32 0
-125 -89 0
-125 45 0
-125 -75 0
-125 -57 0
-125 74 0
-125 98 0
-125 68 0
-125 -81 0
-125 50 0
125 -32 89 -45 75 57 -74 -98 -68 81 -50 0
-126 47 0
-126 78 0
-126 44 0
-126 32 0
-126 70 0
-126 -7 0
-126 -84 0
-126 39 0
-126 -34 0
-126 -80 0
126 -47 -78 -44 -32 -70 7 84 -39 34 80 0
-127 -36 0
-127 3 0
-127 13 0
-127 -65 0
-127 85 0
-127 -42 0
-127 72 0
-127 -59 0
-127 48 0
-127 -47 0
127 36 -3 -13 65 -85 42 -72 59 -48 47 0
-128 -27 0
-128 40 0
-128 -69 0
-128 -58 0
-128 -16 0
-128 70 0
-128 -41 0
-128 -17 0
-128 92 0
-128 72 0
128 27 -40 69 58 16 -70 41 17 -92 -72 0
-129 8 0
-129 60 0
-129 -53 0
-129 -51 0
-129 75 0
-129 -97 0
-129 20 0
-129 34 0
-129 -7 0
-129 -13 0
129 -8 -60 53 51 -75 97 -20 -34 7 13 0
-130 80 0
-130 74 0
-130 -100 0
-130 52 0
-130 61 0
-130 -45 0
-130 46 0
-130 -32 0
-130 37 0
-130 -14 0
130 -80 -74 100 -52 -61 45 -46 32 -37 14 0
121 122 123 124 125 126 127 128 129 130 0
-131 -52 0
-131 -58 0
-131 94 0
-131 -73 0
-131 3 0
-131 -46 0
-131 -66 0
-131 -5 0
-131 100 0
-131 54 0
131 52 58 -94 73 -3 46 66 5 -100 -54 0
-132 95 0
-132 -27 0
-132 -3 0
-132 31 0
-132 -64 0
-132 39 0
-132 -18 0
-132 -30 0
-132 1 0
-132 -62 0
132 -95 27 3 -31 64 -39 18 30 -1 62 0
-133 -96 0
-133 13 0
-133 52 0
-133 -11 0
-133 43 0
-133 -100 0
-133 48 0
-133 -62 0
-133 83 0
-133 -73 0
133 96 -13 -52 11 -43 100 -48 62 -83 73 0
-134 48 0
-134 -91 0
-134 -64 0
-134 -65 0
-134 -52 0
-134 47 0
-134 -94 0
-134 44 0
-134 28 0
-134 -84 0
134 -48 91 64 65 52 -47 94 -44 -28 84 0
-135 100 0
-135 -63 0
-135 90 0
-135 -1 0
-135 96 0
-135 81 0
-135 -51 0
-135 80 0
-135 68 0
-135 -45 0
135 -100 63 -90 1 -96 -81 51 -80 -68 45 0
-136 98 0
-136 -82 0
-136 80 0
-136 -22 0
-136 60 0
-136 78 0
-136 5 0
-136 71 0
-136 54 0
-136 33 0
136 -98 82 -80 22 -60 -78 -5 -71 -54 -33 0
-137 -23 0
-137 54 0
-137 -41 0
-137 59 0
-137 76 0
-137 84 0
-137 40 0
-137 88 0
-137 58 0
-137 -11 0
137 23 -54 41 -59 -76 -84 -40 -88 -58 11 0
-138 -92 0
-138 -75 0
-138 44 0
-138 22 0
-138 -87 0
-138 -6 0
-138 -37 0
-138 72 0
-138 77 0
-138 -32 0
138 92 75 -44 -22 87 6 37 -72 -77 32 0
-139 -86 0
-139 -21 0
-139 42 0
-139 -65 0
-139 -100 0
-139 -95 0
-139 -5 0
-139 -92 0
-139 67 0
-139 -6 0
139 86 21 -42 65 100 95 5 92 -67 6 0
-140 90 0
-140 -32 0
-140 -68 0
-140 44 0
-140 60 0
-140 -46 0
-140 -8 0
-140 -37 0
-140 11 0
-140 88 0
140 -90 32 68 -44 -60 46 8 37 -11 -88 0
131 132 133 134 135 136 137 138 139 140 0
-141 -27 0
-141 64 0
-141 66 0
-141 -77 0
-141 18 0
-141 68 0
-141 72 0
-141 41 0
-141 35 0
-141 -84 0
141 27 -64 -66 77 -18 -68 -72 -41 -35 84 0
-142 -27 0
-142 -14 0
-142 36 0
-142 -65 0
-142 -76 0
-142 46 0
-142 73 0
-142 -48 0
-142 -32 0
-142 -43 0
142 27 14 -36 65 76 -46 -73 48 32 43 0
-143 -62 0
-143 -38 0
-143 9 0
-143 -79 0
-143 16 0
-143 -81 0
-143 -69 0
-143 -44 0
-143 -100 0
-143 25 0
143 62 38 -9 79 -16 81 69 44 100 -25 0
-144 41 0
-144 49 0
-144 -79 0
-144 -67 0
-144 -43 0
-144 6 0
-144 76 0
-144 -25 0
-144 -96 0
-144 -80 0
144 -41 -49 79 67 43 -6 -76 25 96 80 0
-145 -36 0
-145 68 0
-145 87 0
-145 86 0
-145 -61 0
-145 -40 0
-145 75 0
-145 -12 0
-145 -82 0
-145 -3 0
145 36 -68 -87 -86 61 40 -75 12 82 3 0
-146 -84 0
-146 -90 0
-146 40 0
-146 54 0
-146 62 0
-146 29 0
-146 16 0
-146 73 0
-146 96 0
-146 86 0
146 84 90 -40 -54 -62 -29 -16 -73 -96 -86 0
-147 -81 0
-147 19 0
-147 42 0
-147 -70 0
-147 -6 0
-147 -51 0
-147 -63 0
-147 -15 0
-147 18 0
-147 56 0
147 81 -19 -42 70 6 51 63 15 -18 -56 0
-148 39 0
-148 -37 0
-148 -6 0
-148 41 0
-148 21 0
-148 92 0
-148 -62 0
-148 97 0
-148 9 0
-148 -32 0
148 -39 37 6 -41 -21 -92 62 -97 -9 32 0
-149 59 0
-149 -83 0
-149 75 0
-149 53 0
-149 18 0
-149 -91 0
-149 82 0
-149 -19 0
-149 71 0
-149 -23 0
149 -59 83 -75 -53 -18 91 -82 19 -71 23 0
-150 97 0
-150 -46 0
-150 -71 0
-150 34 0
-150 45 0
-150 -26 0
-150 -14 0
-150 12 0
-150 -84 0
-150 55 0
150 -97 46 71 -34 -45 26 14 -12 84 -55 0
141 142 143 144 145 146 147 148 149 150 0
-151 57 0
-151 61 0
-151 -53 0
-151 -19 0
-151 -96 0
-151 26 0
-151 -93 0
-151 25 0
-151 27 0
-151 -48 0
151 -57 -61 53 19 96 -26 93 -25 -27 48 0
-152 -17 0
-152 -38 0
-152 -64 0
-152 -25 0
-152 28 0
-152 -83 0
-152 31 0
-152 93 0
-152 -1 0
-152 90 0
152 17 38 64 25 -28 83 -31 -93 1 -90 0
-153 -81 0
-153 37 0
-153 -89 0
-153 -93 0
-153 69 0
-153 -39 0
-153 35 0
-153 83 0
-153 91 0
-153 -40 0
153 81 -37 89 93 -69 39 -35 -83 -91 40 0
-154 2 0
-154 -20 0
-154 -71 0
-154 -27 0
-154 -33 0
-154 -89 0
-154 50 0
-154 -32 0
-154 -58 0
-154 17 0
154 -2 20 71 27 33 89 -50 32 58 -17 0
-155 -89 0
-155 -2 0
-155 -54 0
-155 73 0
-155 59 0
-155 51 0
-155 -58 0
-155 -91 0
-155 27 0
-155 80 0
155 89 2 54 -73 -59 -51 58 91 -27 -80 0
-156 -45 0
-156 -70 0
-156 67 0
-156 -98 0
-156 79 0
-156 72 0
-156 37 0
-156 -46 0
-156 -39 0
-156 99 0
156 45 70 -67 98 -79 -72 -37 46 39 -99 0
-157 74 0
-157 93 0
-157 1 0
-157 36 0
-157 -61 0
-157 51 0
-157 48 0
-157 6 0
-157 100 0
-157 -87 0
157 -74 -93 -1 -36 61 -51 -48 -6 -100 87 0
-158 -68 0
-158 -92 0
-158 39 0
-158 53 0
-158 49 0
-158 86 0
-158 -78 0
-158 -71 0
-158 -70 0
-158 31 0
158 68 92 -39 -53 -49 -86 78 71 70 -31 0
-159 51 0
-159 4 0
-159 -11 0
-159 17 0
-159 -93 0
-159 8 0
-159 -71 0
-159 23 0
-159 -2 0
-159 33 0
159 -51 -4 11 -17 93 -8 71 -23 2 -33 0
-160 17 0
-160 38 0
-160 -25 0
-160 -75 0
-160 70 0
-160 -56 0
-160 -44 0
-160 -64 0
-160 -45 0
-160 -51 0
160 -17 -38 25 75 -70 56 44 64 45 51 0
151 152 153 154 155 156 157 158 159 160 0
-161 60 0
-161 -38 0
-161 -12 0
-161 89 0
-161 62 0
-161 -41 0
-161 1 0
-161 -79 0
-161 -70 0
-161 71 0
161 -60 38 12 -89 -62 41 -1 79 70 -71 0
-162 -36 0
-162 88 0
-162 75 0
-162 2 0
-162 42 0
-162 -91 0
-162 -67 0
-162 82 0
-162 73 0
-162 -4 0
162 36 -88 -75 -2 -42 91 67 -82 -73 4 0
-163 -77 0
-163 -10 0
-163 -18 0
-163 -21 0
-163 -79 0
-163 -53 0
-163 -80 0
-163 20 0
-163 72 0
-163 -46 0
163 77 10 18 21 79 53 80 -20 -72 46 0
-164 37 0
-164 66 0
-164 -3 0
-164 -60 0
-164 -55 0
-164 -31 0
-164 -61 0
-164 -27 0
-164 -12 0
-164 99 0
164 -37 -66 3 60 55 31 61 27 12 -99 0
-165 30 0
-165 57 0
-165 -49 0
-165 -38 0
-165 -64 0
-165 -65 0
-165 -24 0
-165 13 0
-165 -90 0
-165 74 0
165 -30 -57 49 38 64 65 24 -13 90 -74 0
-166 -18 0
-166 58 0
-166 -78 0
-166 25 0
-166 69 0
-166 35 0
-166 -27 0
-166 30 0
-166 21 0
-166 82 0
166 18 -58 78 -25 -69 -35 27 -30 -21 -82 0
-167 -55 0
-167 -74 0
-167 79 0
-167 -26 0
-167 57 0
-167 -36 0
-167 -37 0
-167 -4 0
-167 64 0
-167 -22 0
167 55 74 -79 26 -57 36 37 4 -64 22 0
-168 -70 0
-168 -62 0
-168 -6 0
-168 20 0
-168 -28 0
-168 -100 0
-168 53 0
-168 -25 0
-168 5 0
-168 -14 0
168 70 62 6 -20 28 100 -53 25 -5 14 0
-169 -77 0
-169 40 0
-169 -20 0
-169 -10 0
-169 -7 0
-169 36 0
-169 2 0
-169 31 0
-169 -27 0
-169 -64 0
169 77 -40 20 10 7 -36 -2 -31 27 64 0
-170 21 0
-170 -8 0
-170 46 0
-170 79 0
-170 38 0
-170 48 0
-170 16 0
-170 92 0
-170 56 0
-170 -60 0
170 -21 8 -46 -79 -38 -48 -16 -92 -56 60 0
161 162 163 164 165 166 167 168 169 170 0
-171 -78 0
-171 -86 0
-171 -24 0
-171 1 0
-171 65 0
-171 -15 0
-171 -4 0
-171 -16 0
-171 82 0
-171 14 0
171 78 86 24 -1 -65 15 4 16 -82 -14 0
-172 78 0
-172 64 0
-172 68 0
-172 -72 0
-172 -63 0
-172 -71 0
-172 73 0
-172 62 0
-172 82 0
-172 57 0
172 -78 -64 -68 72 63 71 -73 -62 -82 -57 0
-173 -8 0
-173 28 0
-173 9 0
-173 -14 0
-173 96 0
-173 -49 0
-173 98 0
-173 -61 0
-173 -17 0
-173 25 0
173 8 -28 -9 14 -96 49 -98 61 17 -25 0
-174 23 0
-174 -75 0
-174 17 0
-174 37 0
-174 -96 0
-174 100 0
-174 13 0
-174 2 0
-174 -52 0
-174 -73 0
174 -23 75 -17 -37 96 -100 -13 -2 52 73 0
-175 -95 0
-175 -26 0
-175 -64 0
-175 -88 0
-175 -42 0
-175 -72 0
-175 -82 0
-175 -94 0
-175 -69 0
-175 -60 0
175 95 26 64 88 42 72 82 94 69 60 0
-176 95 0
-176 75 0
-176 -30 0
-176 88 0
-176 89 0
-176 -64 0
-176 -40 0
-176 55 0
-176 -29 0
-176 -76 0
176 -95 -75 30 -88 -89 64 40 -55 29 76 0
-177 -22 0
-177 62 0
-177 -61 0
-177 -12 0
-177 53 0
-177 -77 0
-177 -35 0
-177 50 0
-177 -45 0
-177 -30 0
177 22 -62 61 12 -53 77 35 -50 45 30 0
-178 -31 0
-178 97 0
-178 -84 0
-178 -46 0
-178 92 0
-178 -98 0
-178 -28 0
-178 -93 0
-178 -44 0
-178 -36 0
178 31 -97 84 46 -92 98 28 93 44 36 0
-179 5 0
-179 -30 0
-179 -55 0
-179 29 0
-179 -96 0
-179 -100 0
-179 7 0
-179 94 0
-179 -25 0
-179 -26 0
179 -5 30 55 -29 96 100 -7 -94 25 26 0
-180 98 0
-180 -50 0
-180 -34 0
-180 -75 0
-180 30 0
-180 83 0
-180 33 0
-180 14 0
-180 -95 0
-180 -15 0
180 -98 50 34 75 -30 -83 -33 -14 95 15 0
171 172 173 174 175 176 177 178 179 180 0
-181 61 0
-181 -83 0
-181 -39 0
-181 -12 0
-181 -47 0
-181 43 0
-181 76 0
-181 -96 0
-181 36 0
-181 -11 0
181 -61 83 39 12 47 -43 -76 96 -36 11 0
-182 -81 0
-182 -14 0
-182 39 0
-182 -19 0
-182 -94 0
-182 53 0
-182 69 0
-182 6 0
-182 -47 0
-182 89 0
182 81 14 -39 19 94 -53 -69 -6 47 -89 0
-183 -4 0
-183 33 0
-183 -88 0
-183 86 0
-183 -99 0
-183 -10 0
-183 63 0
-183 1 0
-183 42 0
-183 30 0
183 4 -33 88 -86 99 10 -63 -1 -42 -30 0
-184 25 0
-184 65 0
-184 -39 0
-184 69 0
-184 -49 0
-184 3 0
-184 78 0
-184 -33 0
-184 -46 0
-184 50 0
184 -25 -65 39 -69 49 -3 -78 33 46 -50 0
-185 68 0
-185 75 0
-185 25 0
-185 -59 0
-185 -73 0
-185 -44 0
-185 12 0
-185 -9 0
-185 -94 0
-185 -33 0
185 -68 -75 -25 59 73 44 -12 9 94 33 0
-186 -76 0
-186 -97 0
-186 -79 0
-186 -19 0
-186 -83 0
-186 -35 0
-186 -49 0
-186 70 0
-186 -26 0
-186 -43 0
186 76 97 79 19 83 35 49 -70 26 43 0
-187 -72 0
-187 -58 0
-187 -68 0
-187 -77 0
-187 50 0
-187 -81 0
-187 -8 0
-187 1 0
-187 98 0
-187 93 0
187 72 58 68 77 -50 81 8 -1 -98 -93 0
-188 19 0
-188 -38 0
-188 45 0
-188 76 0
-188 -47 0
-188 -26 0
-188 -88 0
-188 7 0
-188 -96 0
-188 -28 0
188 -19 38 -45 -76 47 26 88 -7 96 28 0
-189 91 0
-189 -53 0
-189 58 0
-189 69 0
-189 11 0
-189 -61 0
-189 -65 0
-189 -7 0
-189 -44 0
-189 60 0
189 -91 53 -58 -69 -11 61 65 7 44 -60 0
-190 -79 0
-190 -24 0
-190 -31 0
-190 99 0
-190 -37 0
-190 7 0
-190 -93 0
-190 81 0
-190 74 0
-190 -5 0
190 79 24 31 -99 37 -7 93 -81 -74 5 0
181 182 183 184 185 186 187 188 189 190 0
-191 85 0
-191 -19 0
-191 6 0
-191 -30 0
-191 82 0
-191 66 0
-191 -7 0
-191 -17 0
-191 -98 0
-191 -42 0
191 -85 19 -6 30 -82 -66 7 17 98 42 0
-192 95 0
-192 54 0
-192 100 0
-192 -50 0
-192 -99 0
-192 -43 0
-192 -82 0
-192 -73 0
-192 -37 0
-192 -86 0
192 -95 -54 -100 50 99 43 82 73 37 86 0
-193 63 0
-193 -27 0
-193 42 0
-193 -52 0
-193 -34 0
-193 -93 0
-193 80 0
-193 61 0
-193 -32 0
-193 -15 0
193 -63 27 -42 52 34 93 -80 -61 32 15 0
-194 -62 0
-194 -1 0
-194 -77 0
-194 37 0
-194 -30 0
-194 -96 0
-194 -71 0
-194 61 0
-194 21 0
-194 -15 0
194 62 1 77 -37 30 96 71 -61 -21 15 0
-195 -49 0
-195 -11 0
-195 19 0
-195 56 0
-195 -25 0
-195 -97 0
-195 -94 0
-195 -9 0
-195 90 0
-195 34 0
195 49 11 -19 -56 25 97 94 9 -90 -34 0
-196 3 0
-196 -12 0
-196 -78 0
-196 -98 0
-196 -60 0
-196 -92 0
-196 89 0
-196 72 0
-196 34 0
-196 -26 0
196 -3 12 78 98 60 92 -89 -72 -34 26 0
-197 91 0
-197 -78 0
-197 -40 0
-197 -45 0
-197 93 0
-197 88 0
-197 -69 0
-197 74 0
-197 48 0
-197 90 0
197 -91 78 40 45 -93 -88 69 -74 -48 -90 0
-198 22 0
-198 -68 0
-198 12 0
-198 -36 0
-198 17 0
-198 -92 0
-198 -38 0
-198 80 0
-198 -11 0
-198 -1 0
198 -22 68 -12 36 -17 92 38 -80 11 1 0
-199 66 0
-199 -24 0
-199 51 0
-199 -50 0
-199 -81 0
-199 -71 0
-199 -7 0
-199 94 0
-199 -8 0
-199 40 0
199 -66 24 -51 50 81 71 7 -94 8 -40 0
-200 -41 0
-200 98 0
-200 90 0
-200 -43 0
-200 -56 0
-200 -63 0
-200 77 0
-200 -97 0
-200 2 0
-200 -39 0
200 41 -98 -90 43 56 63 -77 97 -2 39 0
191 192 193 194 195 196 197 198 199 200 0
